45
1 0 34
2 0 63
2 1 6
3 0 81
3 1 75
3 2 3
4 0 58
4 1 5
4 2 11
4 3 83
5 0 72
5 1 5
5 2 79
5 3 55
5 4 74
6 0 76
6 1 32
6 2 7
6 3 7
6 4 11
6 5 58
7 0 80
7 1 91
7 2 99
7 3 62
7 4 62
7 5 93
7 6 83
8 0 85
8 1 86
8 2 53
8 3 27
8 4 75
8 5 64
8 6 21
8 7 24
9 0 16
9 1 98
9 2 4
9 3 25
9 4 92
9 5 82
9 6 24
9 7 62
9 8 33
10 0 64
10 1 49
10 2 38
10 3 80
10 4 42
10 5 29
10 6 49
10 7 64
10 8 22
10 9 65
11 0 1
11 1 66
11 2 30
11 3 87
11 4 28
11 5 45
11 6 96
11 7 12
11 8 14
11 9 5
11 10 30
12 0 24
12 1 93
12 2 69
12 3 49
12 4 84
12 5 58
12 6 68
12 7 57
12 8 65
12 9 19
12 10 67
12 11 55
13 0 71
13 1 88
13 2 85
13 3 40
13 4 88
13 5 80
13 6 78
13 7 43
13 8 64
13 9 53
13 10 2
13 11 84
13 12 42
14 0 36
14 1 56
14 2 58
14 3 57
14 4 3
14 5 98
14 6 86
14 7 100
14 8 15
14 9 60
14 10 84
14 11 100
14 12 17
14 13 17
15 0 38
15 1 74
15 2 61
15 3 85
15 4 91
15 5 51
15 6 18
15 7 55
15 8 75
15 9 65
15 10 73
15 11 77
15 12 48
15 13 79
15 14 19
16 0 64
16 1 14
16 2 79
16 3 13
16 4 80
16 5 48
16 6 59
16 7 40
16 8 15
16 9 36
16 10 71
16 11 8
16 12 80
16 13 11
16 14 24
16 15 67
17 0 70
17 1 59
17 2 58
17 3 18
17 4 73
17 5 95
17 6 10
17 7 80
17 8 23
17 9 59
17 10 64
17 11 96
17 12 30
17 13 78
17 14 52
17 15 21
17 16 41
18 0 79
18 1 32
18 2 15
18 3 91
18 4 62
18 5 81
18 6 34
18 7 76
18 8 77
18 9 61
18 10 93
18 11 46
18 12 36
18 13 62
18 14 41
18 15 86
18 16 77
18 17 17
19 0 77
19 1 59
19 2 63
19 3 44
19 4 94
19 5 12
19 6 55
19 7 72
19 8 28
19 9 70
19 10 31
19 11 44
19 12 57
19 13 74
19 14 14
19 15 10
19 16 65
19 17 38
19 18 28
20 0 43
20 1 74
20 2 23
20 3 16
20 4 61
20 5 12
20 6 68
20 7 75
20 8 20
20 9 59
20 10 8
20 11 90
20 12 10
20 13 100
20 14 80
20 15 82
20 16 91
20 17 71
20 18 99
20 19 91
21 0 24
21 1 77
21 2 51
21 3 72
21 4 98
21 5 19
21 6 29
21 7 55
21 8 61
21 9 67
21 10 13
21 11 22
21 12 93
21 13 45
21 14 87
21 15 86
21 16 95
21 17 41
21 18 17
21 19 71
21 20 69
22 0 37
22 1 38
22 2 47
22 3 19
22 4 37
22 5 49
22 6 45
22 7 97
22 8 26
22 9 84
22 10 83
22 11 73
22 12 92
22 13 23
22 14 50
22 15 7
22 16 7
22 17 56
22 18 47
22 19 43
22 20 21
22 21 16
23 0 82
23 1 66
23 2 46
23 3 51
23 4 60
23 5 83
23 6 7
23 7 84
23 8 11
23 9 13
23 10 12
23 11 95
23 12 68
23 13 16
23 14 44
23 15 19
23 16 68
23 17 80
23 18 93
23 19 52
23 20 40
23 21 51
23 22 84
24 0 90
24 1 16
24 2 75
24 3 43
24 4 61
24 5 62
24 6 84
24 7 43
24 8 20
24 9 29
24 10 56
24 11 100
24 12 18
24 13 66
24 14 12
24 15 7
24 16 53
24 17 39
24 18 53
24 19 46
24 20 83
24 21 58
24 22 28
24 23 97
25 0 50
25 1 3
25 2 98
25 3 41
25 4 39
25 5 90
25 6 39
25 7 36
25 8 80
25 9 39
25 10 91
25 11 88
25 12 65
25 13 18
25 14 53
25 15 74
25 16 39
25 17 76
25 18 74
25 19 75
25 20 75
25 21 5
25 22 97
25 23 17
25 24 64
26 0 73
26 1 52
26 2 52
26 3 61
26 4 24
26 5 5
26 6 9
26 7 75
26 8 54
26 9 11
26 10 90
26 11 100
26 12 88
26 13 28
26 14 22
26 15 9
26 16 16
26 17 85
26 18 59
26 19 76
26 20 88
26 21 20
26 22 1
26 23 89
26 24 49
26 25 22
27 0 97
27 1 61
27 2 69
27 3 49
27 4 12
27 5 75
27 6 22
27 7 3
27 8 6
27 9 100
27 10 88
27 11 82
27 12 44
27 13 62
27 14 96
27 15 51
27 16 26
27 17 73
27 18 34
27 19 89
27 20 23
27 21 48
27 22 95
27 23 1
27 24 42
27 25 51
27 26 24
28 0 25
28 1 71
28 2 58
28 3 98
28 4 53
28 5 66
28 6 29
28 7 47
28 8 39
28 9 81
28 10 35
28 11 99
28 12 90
28 13 58
28 14 58
28 15 6
28 16 45
28 17 35
28 18 83
28 19 86
28 20 85
28 21 18
28 22 45
28 23 93
28 24 35
28 25 39
28 26 86
28 27 84
29 0 59
29 1 10
29 2 61
29 3 64
29 4 45
29 5 6
29 6 69
29 7 16
29 8 37
29 9 74
29 10 17
29 11 53
29 12 63
29 13 42
29 14 41
29 15 39
29 16 59
29 17 57
29 18 39
29 19 80
29 20 1
29 21 97
29 22 80
29 23 82
29 24 79
29 25 30
29 26 17
29 27 2
29 28 90
30 0 10
30 1 99
30 2 71
30 3 21
30 4 36
30 5 59
30 6 53
30 7 56
30 8 17
30 9 48
30 10 56
30 11 31
30 12 14
30 13 6
30 14 31
30 15 14
30 16 58
30 17 12
30 18 12
30 19 82
30 20 56
30 21 60
30 22 77
30 23 37
30 24 44
30 25 30
30 26 57
30 27 68
30 28 43
30 29 72
31 0 94
31 1 51
31 2 27
31 3 12
31 4 40
31 5 57
31 6 13
31 7 45
31 8 58
31 9 99
31 10 26
31 11 89
31 12 40
31 13 39
31 14 5
31 15 94
31 16 78
31 17 37
31 18 53
31 19 48
31 20 41
31 21 20
31 22 38
31 23 18
31 24 43
31 25 92
31 26 5
31 27 7
31 28 15
31 29 19
31 30 65
32 0 35
32 1 7
32 2 57
32 3 50
32 4 67
32 5 82
32 6 13
32 7 64
32 8 29
32 9 82
32 10 51
32 11 72
32 12 15
32 13 82
32 14 81
32 15 99
32 16 55
32 17 56
32 18 3
32 19 26
32 20 100
32 21 17
32 22 90
32 23 22
32 24 56
32 25 16
32 26 18
32 27 38
32 28 53
32 29 6
32 30 95
32 31 48
33 0 47
33 1 5
33 2 53
33 3 21
33 4 90
33 5 15
33 6 72
33 7 61
33 8 2
33 9 81
33 10 82
33 11 37
33 12 51
33 13 100
33 14 56
33 15 2
33 16 8
33 17 8
33 18 73
33 19 69
33 20 32
33 21 14
33 22 34
33 23 87
33 24 27
33 25 48
33 26 48
33 27 49
33 28 41
33 29 44
33 30 26
33 31 5
33 32 23
34 0 91
34 1 54
34 2 85
34 3 52
34 4 99
34 5 21
34 6 40
34 7 97
34 8 79
34 9 28
34 10 53
34 11 86
34 12 29
34 13 13
34 14 87
34 15 83
34 16 74
34 17 61
34 18 81
34 19 91
34 20 6
34 21 80
34 22 82
34 23 60
34 24 15
34 25 60
34 26 1
34 27 42
34 28 20
34 29 68
34 30 24
34 31 21
34 32 21
34 33 16
35 0 100
35 1 39
35 2 49
35 3 21
35 4 19
35 5 54
35 6 84
35 7 52
35 8 21
35 9 38
35 10 45
35 11 9
35 12 13
35 13 83
35 14 7
35 15 1
35 16 83
35 17 68
35 18 79
35 19 8
35 20 44
35 21 26
35 22 35
35 23 46
35 24 39
35 25 87
35 26 17
35 27 73
35 28 85
35 29 9
35 30 23
35 31 93
35 32 54
35 33 15
35 34 55
36 0 66
36 1 8
36 2 91
36 3 2
36 4 14
36 5 30
36 6 19
36 7 71
36 8 83
36 9 35
36 10 54
36 11 89
36 12 14
36 13 36
36 14 68
36 15 52
36 16 20
36 17 13
36 18 3
36 19 84
36 20 73
36 21 97
36 22 37
36 23 30
36 24 53
36 25 75
36 26 26
36 27 11
36 28 13
36 29 85
36 30 90
36 31 91
36 32 54
36 33 30
36 34 64
36 35 56
37 0 31
37 1 67
37 2 3
37 3 99
37 4 12
37 5 24
37 6 49
37 7 45
37 8 71
37 9 55
37 10 70
37 11 89
37 12 1
37 13 46
37 14 44
37 15 8
37 16 52
37 17 18
37 18 46
37 19 77
37 20 48
37 21 4
37 22 53
37 23 100
37 24 33
37 25 89
37 26 84
37 27 39
37 28 50
37 29 33
37 30 37
37 31 100
37 32 48
37 33 33
37 34 93
37 35 3
37 36 86
38 0 82
38 1 91
38 2 59
38 3 61
38 4 25
38 5 99
38 6 15
38 7 86
38 8 38
38 9 38
38 10 46
38 11 1
38 12 71
38 13 29
38 14 17
38 15 87
38 16 20
38 17 76
38 18 24
38 19 15
38 20 42
38 21 91
38 22 98
38 23 50
38 24 9
38 25 43
38 26 31
38 27 100
38 28 66
38 29 81
38 30 55
38 31 68
38 32 58
38 33 44
38 34 92
38 35 57
38 36 16
38 37 89
39 0 32
39 1 26
39 2 32
39 3 80
39 4 37
39 5 14
39 6 60
39 7 25
39 8 64
39 9 57
39 10 23
39 11 50
39 12 49
39 13 83
39 14 13
39 15 48
39 16 2
39 17 52
39 18 6
39 19 55
39 20 10
39 21 80
39 22 46
39 23 19
39 24 42
39 25 62
39 26 60
39 27 74
39 28 94
39 29 77
39 30 99
39 31 45
39 32 36
39 33 55
39 34 35
39 35 35
39 36 42
39 37 23
39 38 48
40 0 63
40 1 6
40 2 70
40 3 86
40 4 67
40 5 88
40 6 92
40 7 80
40 8 99
40 9 36
40 10 16
40 11 47
40 12 47
40 13 78
40 14 1
40 15 19
40 16 81
40 17 80
40 18 75
40 19 76
40 20 15
40 21 23
40 22 56
40 23 63
40 24 16
40 25 31
40 26 53
40 27 38
40 28 4
40 29 56
40 30 68
40 31 68
40 32 29
40 33 15
40 34 24
40 35 65
40 36 24
40 37 21
40 38 97
40 39 45
41 0 62
41 1 52
41 2 33
41 3 43
41 4 61
41 5 64
41 6 68
41 7 9
41 8 30
41 9 29
41 10 89
41 11 84
41 12 39
41 13 57
41 14 6
41 15 28
41 16 54
41 17 43
41 18 11
41 19 27
41 20 88
41 21 25
41 22 56
41 23 37
41 24 31
41 25 69
41 26 72
41 27 16
41 28 81
41 29 6
41 30 12
41 31 52
41 32 89
41 33 83
41 34 89
41 35 9
41 36 75
41 37 9
41 38 36
41 39 32
41 40 86
42 0 10
42 1 21
42 2 74
42 3 15
42 4 14
42 5 88
42 6 62
42 7 83
42 8 41
42 9 3
42 10 2
42 11 56
42 12 64
42 13 34
42 14 77
42 15 65
42 16 63
42 17 87
42 18 13
42 19 35
42 20 98
42 21 81
42 22 97
42 23 42
42 24 58
42 25 33
42 26 83
42 27 64
42 28 79
42 29 83
42 30 17
42 31 87
42 32 22
42 33 91
42 34 58
42 35 81
42 36 64
42 37 69
42 38 99
42 39 62
42 40 47
42 41 42
43 0 90
43 1 8
43 2 67
43 3 49
43 4 26
43 5 79
43 6 26
43 7 28
43 8 62
43 9 79
43 10 61
43 11 40
43 12 52
43 13 48
43 14 22
43 15 37
43 16 37
43 17 71
43 18 78
43 19 69
43 20 15
43 21 59
43 22 54
43 23 87
43 24 88
43 25 4
43 26 47
43 27 97
43 28 49
43 29 56
43 30 54
43 31 54
43 32 61
43 33 44
43 34 28
43 35 19
43 36 54
43 37 42
43 38 38
43 39 4
43 40 16
43 41 73
43 42 88
44 0 86
44 1 74
44 2 71
44 3 47
44 4 70
44 5 93
44 6 70
44 7 66
44 8 6
44 9 22
44 10 78
44 11 4
44 12 31
44 13 72
44 14 52
44 15 84
44 16 58
44 17 19
44 18 95
44 19 42
44 20 39
44 21 47
44 22 27
44 23 53
44 24 91
44 25 83
44 26 5
44 27 42
44 28 40
44 29 90
44 30 5
44 31 13
44 32 41
44 33 22
44 34 75
44 35 48
44 36 55
44 37 44
44 38 28
44 39 75
44 40 23
44 41 87
44 42 37
44 43 93
